p cnf 7230 17
-5459 -5460 0
4632 5138 5452 0
-2156 -5134 -5457 0
2156 -5458 0
5457 5458 0
5455 5456 0
5142 -5456 0
-5142 -5455 0
5453 5454 0
5140 -5454 0
-5140 -5453 0
5134 -5458 0
-1614 -5136 5460 0
5451 -5452 0
-5451 5452 0
5136 -5460 0
1614 -5460 0
